\* EMD *\
Minimize
OBJ: 17.5641680703 x0_0 + 16.6733320005 x0_1 + 16.3554272338 x0_2
 + 17.2336879396 x0_3 + 18.5067555233 x1_0 + 16.6433169771 x1_1
 + 17.0440605491 x1_2 + 17.2626765016 x1_3 + 19.6723155729 x2_0
 + 17.8185296812 x2_1 + 17 x2_2 + 18.0138835347 x2_3 + 18.1245689604 x3_0
 + 15.3297097168 x3_1 + 14.5258390463 x3_2 + 15.3133928311 x3_3
Subject To
_C1: x0_0 + x0_1 + x0_2 + x0_3 + x1_0 + x1_1 + x1_2 + x1_3 + x2_0 + x2_1
 + x2_2 + x2_3 + x3_0 + x3_1 + x3_2 + x3_3 = 1
_C2: x0_0 + x0_1 + x0_2 + x0_3 <= 0.25
_C3: x1_0 + x1_1 + x1_2 + x1_3 <= 0.25
_C4: x2_0 + x2_1 + x2_2 + x2_3 <= 0.25
_C5: x3_0 + x3_1 + x3_2 + x3_3 <= 0.25
_C6: x0_0 + x1_0 + x2_0 + x3_0 <= 0.25
_C7: x0_1 + x1_1 + x2_1 + x3_1 <= 0.25
_C8: x0_2 + x1_2 + x2_2 + x3_2 <= 0.25
_C9: x0_3 + x1_3 + x2_3 + x3_3 <= 0.25
End
